NAME lp_typeD_751
OBJSENSE MAX
ROWS
 N  OBJ
 L  c0      
 G  c1      
 G  c2      
 L  c_key_upper
 G  c_key_lower
 G  _chain_constr_1
 G  _chain_constr_2
 G  _chain_constr_3
 G  _chain_cycle
COLUMNS
    x0        OBJ       8.7761563599791326e-01
    x0        c0        0.655747762263614
    x0        c1        1.6819923998192017e+00
    x0        c2        1.3243844962017861e+00
    x0        c_key_upper  1.9088236347125269e+00
    x0        c_key_lower  1.9088236347125269e+00
    x1        OBJ       1.1529070067000839e+00
    x1        c0        1.9755297288168068e+00
    x1        c1        0.914820017422703
    x1        c2        1.7654238445323098e+00
    x1        c_key_upper  1.72585650397555
    x1        c_key_lower  1.72585650397555
    x2        OBJ       7.8157007939102052e-01
    x2        c0        1.8270951962198749e+00
    x2        c1        0.725046223310307
    x2        c2        1.8394225326044167e+00
    x2        c_key_upper  1.75961572404608
    x2        c_key_lower  1.75961572404608
    x3        OBJ       7.8961321782821647e-01
    x3        c0        1.6808620891975916e+00
    x3        c1        1.1122037057493808e+00
    x3        c2        1.4998676165106466e+00
    x3        c_key_upper  1.4816751700626054e+00
    x3        c_key_lower  1.4816751700626054e+00
    x4        OBJ       7.8967593814590364e-01
    x4        c0        0.635276322133466
    x4        c1        5.2656256097638132e-01
    x4        c2        5.5183443094262763e-01
    x4        c_key_upper  1.7894885336322734e+00
    x4        c_key_lower  1.7894885336322734e+00
    x5        OBJ       8.7140714555796150e-01
    x5        c0        1.0141728562374919e+00
    x5        c1        1.3958081903882482e+00
    x5        c2        1.7958130582959835e+00
    x5        c_key_upper  1.6515738973331486e+00
    x5        c_key_lower  1.6515738973331486e+00
    x6        OBJ       7.4604456566688848e-01
    x6        c0        9.4120293359089713e-01
    x6        c1        1.4370471358836381e+00
    x6        c2        1.6512442493035004e+00
    x6        c_key_upper  1.7348837723029353e+00
    x6        c_key_lower  1.7348837723029353e+00
    _chain_var_0  _chain_constr_1  -1
    _chain_var_0  _chain_cycle  1
    _chain_var_1  _chain_constr_1  1
    _chain_var_1  _chain_constr_2  -1
    _chain_var_2  _chain_constr_2  1
    _chain_var_2  _chain_constr_3  -1
    _chain_var_3  _chain_constr_3  1
    _chain_var_3  _chain_cycle  -1
RHS
    RHS1      c0        4.9002763962632351e+01
    RHS1      c1        9.7657422444718538e+00
    RHS1      c2        1.0812852550975522e+01
    RHS1      c_key_upper  60.2595861803256
    RHS1      c_key_lower  30.1297930901628
    RHS1      _chain_constr_1  10
    RHS1      _chain_constr_2  10
    RHS1      _chain_constr_3  10
    RHS1      _chain_cycle  10
BOUNDS
 UP BND1      x0        10
 UP BND1      x1        10
 UP BND1      x2        10
 UP BND1      x3        10
 UP BND1      x4        10
 UP BND1      x5        10
 UP BND1      x6        10
 UP BND1      _chain_var_0  100
 UP BND1      _chain_var_1  100
 UP BND1      _chain_var_2  100
 UP BND1      _chain_var_3  100
ENDATA
